rcpsp/heur_output_or_constraints/Log=2/heurj30.txt
encoding rcpsp/j30.sm/j3017_3.sm nv: 25050 nc: 66190 enctime: 0.54
encoding rcpsp/j30.sm/j3017_3.sm nv: 8850 nc: 22558 enctime: 0.10
c File: j3017_3.smnaiveor2.wcnf
c optimal
c final solution cost: 58
c CPU time: 0.148059
s OPTIMUM FOUND

c File: j3017_3.smor2.wcnf
c optimal
c final solution cost: 58
c CPU time: 0.022900
s OPTIMUM FOUND


rcpsp/heur_output_or_constraints/Log=2/heurj30.txt
encoding rcpsp/j30.sm/j3017_4.sm nv: 20160 nc: 51157 enctime: 0.41
encoding rcpsp/j30.sm/j3017_4.sm nv: 6860 nc: 16767 enctime: 0.07
c File: j3017_4.smnaiveor2.wcnf
c optimal
c final solution cost: 47
c CPU time: 0.519285
s OPTIMUM FOUND

c File: j3017_4.smor2.wcnf
c optimal
c final solution cost: 47
c CPU time: 0.065365
s OPTIMUM FOUND


rcpsp/heur_output_or_constraints/Log=2/heurj30.txt
encoding rcpsp/j30.sm/j3017_5.sm nv: 20960 nc: 56888 enctime: 0.48
encoding rcpsp/j30.sm/j3017_5.sm nv: 7205 nc: 18773 enctime: 0.08
c File: j3017_5.smnaiveor2.wcnf
c optimal
c final solution cost: 38
c CPU time: 0.204939
s OPTIMUM FOUND

c File: j3017_5.smor2.wcnf
c optimal
c final solution cost: 38
c CPU time: 0.045742
s OPTIMUM FOUND


rcpsp/heur_output_or_constraints/Log=2/heurj30.txt
encoding rcpsp/j30.sm/j3017_6.sm nv: 22378 nc: 60929 enctime: 0.51
encoding rcpsp/j30.sm/j3017_6.sm nv: 6566 nc: 17033 enctime: 0.07
c File: j3017_6.smnaiveor2.wcnf
c optimal
c final solution cost: 48
c CPU time: 0.232002
s OPTIMUM FOUND

c File: j3017_6.smor2.wcnf
c optimal
c final solution cost: 48
c CPU time: 0.021204
s OPTIMUM FOUND


rcpsp/heur_output_or_constraints/Log=2/heurj30.txt
encoding rcpsp/j30.sm/j3017_7.sm nv: 22428 nc: 64341 enctime: 0.55
encoding rcpsp/j30.sm/j3017_7.sm nv: 7056 nc: 19323 enctime: 0.08
c File: j3017_7.smnaiveor2.wcnf
c optimal
c final solution cost: 49
c CPU time: 0.168667
s OPTIMUM FOUND

c File: j3017_7.smor2.wcnf
c optimal
c final solution cost: 49
c CPU time: 0.024646
s OPTIMUM FOUND


rcpsp/heur_output_or_constraints/Log=2/heurj30.txt
encoding rcpsp/j30.sm/j3017_8.sm nv: 23635 nc: 62560 enctime: 0.51
encoding rcpsp/j30.sm/j3017_8.sm nv: 8700 nc: 22287 enctime: 0.10
c File: j3017_8.smnaiveor2.wcnf
c optimal
c final solution cost: 48
c CPU time: 0.183985
s OPTIMUM FOUND

c File: j3017_8.smor2.wcnf
c optimal
c final solution cost: 48
c CPU time: 0.048526
s OPTIMUM FOUND


rcpsp/heur_output_or_constraints/Log=2/heurj30.txt
encoding rcpsp/j30.sm/j3017_9.sm nv: 17290 nc: 43012 enctime: 0.34
encoding rcpsp/j30.sm/j3017_9.sm nv: 6916 nc: 16726 enctime: 0.08
c File: j3017_9.smnaiveor2.wcnf
c optimal
c final solution cost: 44
c CPU time: 0.095735
s OPTIMUM FOUND

c File: j3017_9.smor2.wcnf
c optimal
c final solution cost: 44
c CPU time: 0.019500
s OPTIMUM FOUND


rcpsp/heur_output_or_constraints/Log=2/heurj30.txt
encoding rcpsp/j30.sm/j301_7.sm nv: 19519 nc: 50632 enctime: 0.40
encoding rcpsp/j30.sm/j301_7.sm nv: 6419 nc: 16032 enctime: 0.07
c File: j301_7.smnaiveor2.wcnf
c optimal
c final solution cost: 45
c CPU time: 0.126408
s OPTIMUM FOUND

c File: j301_7.smor2.wcnf
c optimal
c final solution cost: 45
c CPU time: 0.020891
s OPTIMUM FOUND


rcpsp/heur_output_or_constraints/Log=2/heurj30.txt
encoding rcpsp/j30.sm/j3018_10.sm nv: 21646 nc: 57246 enctime: 0.47
encoding rcpsp/j30.sm/j3018_10.sm nv: 5754 nc: 14442 enctime: 0.06
c File: j3018_10.smnaiveor2.wcnf
c optimal
c final solution cost: 39
c CPU time: 0.177146
s OPTIMUM FOUND

c File: j3018_10.smor2.wcnf
c optimal
c final solution cost: 39
c CPU time: 0.018537
s OPTIMUM FOUND


rcpsp/heur_output_or_constraints/Log=2/heurj30.txt
encoding rcpsp/j30.sm/j3018_1.sm nv: 20664 nc: 56192 enctime: 0.48
encoding rcpsp/j30.sm/j3018_1.sm nv: 6048 nc: 15592 enctime: 0.07
c File: j3018_1.smnaiveor2.wcnf
c optimal
c final solution cost: 45
c CPU time: 0.182086
s OPTIMUM FOUND

c File: j3018_1.smor2.wcnf
c optimal
c final solution cost: 45
c CPU time: 0.027535
s OPTIMUM FOUND


rcpsp/heur_output_or_constraints/Log=2/heurj30.txt
encoding rcpsp/j30.sm/j3018_2.sm nv: 23572 nc: 62765 enctime: 0.52
encoding rcpsp/j30.sm/j3018_2.sm nv: 7526 nc: 19260 enctime: 0.08
c File: j3018_2.smnaiveor2.wcnf
c optimal
c final solution cost: 43
c CPU time: 0.141930
s OPTIMUM FOUND

c File: j3018_2.smor2.wcnf
c optimal
c final solution cost: 43
c CPU time: 0.021533
s OPTIMUM FOUND


rcpsp/heur_output_or_constraints/Log=2/heurj30.txt
encoding rcpsp/j30.sm/j3018_3.sm nv: 21504 nc: 58772 enctime: 0.50
encoding rcpsp/j30.sm/j3018_3.sm nv: 6528 nc: 17003 enctime: 0.07
c File: j3018_3.smnaiveor2.wcnf
c optimal
c final solution cost: 40
c CPU time: 0.141315
s OPTIMUM FOUND

c File: j3018_3.smor2.wcnf
c optimal
c final solution cost: 40
c CPU time: 0.019549
s OPTIMUM FOUND


rcpsp/heur_output_or_constraints/Log=2/heurj30.txt
encoding rcpsp/j30.sm/j3018_4.sm nv: 25088 nc: 74899 enctime: 0.65
encoding rcpsp/j30.sm/j3018_4.sm nv: 7168 nc: 20299 enctime: 0.08
c File: j3018_4.smnaiveor2.wcnf
c optimal
c final solution cost: 47
c CPU time: 0.195270
s OPTIMUM FOUND

c File: j3018_4.smor2.wcnf
c optimal
c final solution cost: 47
c CPU time: 0.025809
s OPTIMUM FOUND


rcpsp/heur_output_or_constraints/Log=2/heurj30.txt
encoding rcpsp/j30.sm/j3018_5.sm nv: 24966 nc: 67008 enctime: 0.55
encoding rcpsp/j30.sm/j3018_5.sm nv: 6862 nc: 17532 enctime: 0.07
c File: j3018_5.smnaiveor2.wcnf
c optimal
c final solution cost: 44
c CPU time: 0.154757
s OPTIMUM FOUND

c File: j3018_5.smor2.wcnf
c optimal
c final solution cost: 44
c CPU time: 0.019908
s OPTIMUM FOUND


rcpsp/heur_output_or_constraints/Log=2/heurj30.txt
encoding rcpsp/j30.sm/j3018_6.sm nv: 28055 nc: 75169 enctime: 0.62
encoding rcpsp/j30.sm/j3018_6.sm nv: 8680 nc: 22294 enctime: 0.10
c File: j3018_6.smnaiveor2.wcnf
c optimal
c final solution cost: 49
c CPU time: 0.261758
s OPTIMUM FOUND

c File: j3018_6.smor2.wcnf
c optimal
c final solution cost: 49
c CPU time: 0.038540
s OPTIMUM FOUND


rcpsp/heur_output_or_constraints/Log=2/heurj30.txt
encoding rcpsp/j30.sm/j3018_7.sm nv: 19720 nc: 50367 enctime: 0.41
encoding rcpsp/j30.sm/j3018_7.sm nv: 7072 nc: 17445 enctime: 0.08
c File: j3018_7.smnaiveor2.wcnf
c optimal
c final solution cost: 47
c CPU time: 0.155123
s OPTIMUM FOUND

c File: j3018_7.smor2.wcnf
c optimal
c final solution cost: 47
c CPU time: 0.028893
s OPTIMUM FOUND


rcpsp/heur_output_or_constraints/Log=2/heurj30.txt
encoding rcpsp/j30.sm/j3018_8.sm nv: 22848 nc: 61765 enctime: 0.52
encoding rcpsp/j30.sm/j3018_8.sm nv: 5168 nc: 13015 enctime: 0.05
c File: j3018_8.smnaiveor2.wcnf
c optimal
c final solution cost: 34
c CPU time: 0.223602
s OPTIMUM FOUND

c File: j3018_8.smor2.wcnf
c optimal
c final solution cost: 34
c CPU time: 0.017093
s OPTIMUM FOUND


rcpsp/heur_output_or_constraints/Log=2/heurj30.txt
encoding rcpsp/j30.sm/j3018_9.sm nv: 21352 nc: 56972 enctime: 0.47
encoding rcpsp/j30.sm/j3018_9.sm nv: 5304 nc: 13312 enctime: 0.05
c File: j3018_9.smnaiveor2.wcnf
c optimal
c final solution cost: 36
c CPU time: 0.146618
s OPTIMUM FOUND

c File: j3018_9.smor2.wcnf
c optimal
c final solution cost: 36
c CPU time: 0.016148
s OPTIMUM FOUND


rcpsp/heur_output_or_constraints/Log=2/heurj30.txt
encoding rcpsp/j30.sm/j301_8.sm nv: 21330 nc: 55778 enctime: 0.44
encoding rcpsp/j30.sm/j301_8.sm nv: 7965 nc: 20138 enctime: 0.09
c File: j301_8.smnaiveor2.wcnf
c optimal
c final solution cost: 43
c CPU time: 0.280106
s OPTIMUM FOUND

c File: j301_8.smor2.wcnf
c optimal
c final solution cost: 43
c CPU time: 0.027898
s OPTIMUM FOUND


rcpsp/heur_output_or_constraints/Log=2/heurj30.txt
encoding rcpsp/j30.sm/j3019_10.sm nv: 22110 nc: 59512 enctime: 0.50
encoding rcpsp/j30.sm/j3019_10.sm nv: 5226 nc: 13144 enctime: 0.05
c File: j3019_10.smnaiveor2.wcnf
c optimal
c final solution cost: 38
c CPU time: 0.207826
s OPTIMUM FOUND

c File: j3019_10.smor2.wcnf
c optimal
c final solution cost: 38
c CPU time: 0.013906
s OPTIMUM FOUND


rcpsp/heur_output_or_constraints/Log=2/heurj30.txt
encoding rcpsp/j30.sm/j3019_1.sm nv: 19448 nc: 48710 enctime: 0.40
encoding rcpsp/j30.sm/j3019_1.sm nv: 4488 nc: 10540 enctime: 0.04
c File: j3019_1.smnaiveor2.wcnf
c optimal
c final solution cost: 29
c CPU time: 0.130350
s OPTIMUM FOUND

c File: j3019_1.smor2.wcnf
c optimal
c final solution cost: 29
c CPU time: 0.012766
s OPTIMUM FOUND


rcpsp/heur_output_or_constraints/Log=2/heurj30.txt
encoding rcpsp/j30.sm/j3019_2.sm nv: 32736 nc: 85152 enctime: 0.68
encoding rcpsp/j30.sm/j3019_2.sm nv: 7920 nc: 19587 enctime: 0.08
c File: j3019_2.smnaiveor2.wcnf
c optimal
c final solution cost: 40
c CPU time: 0.187521
s OPTIMUM FOUND

c File: j3019_2.smor2.wcnf
c optimal
c final solution cost: 40
c CPU time: 0.020730
s OPTIMUM FOUND


rcpsp/heur_output_or_constraints/Log=2/heurj30.txt
encoding rcpsp/j30.sm/j3019_3.sm nv: 30173 nc: 89442 enctime: 0.77
encoding rcpsp/j30.sm/j3019_3.sm nv: 9724 nc: 27666 enctime: 0.17
c File: j3019_3.smnaiveor2.wcnf
c optimal
c final solution cost: 67
c CPU time: 0.217870
s OPTIMUM FOUND

c File: j3019_3.smor2.wcnf
c optimal
c final solution cost: 67
c CPU time: 0.028394
s OPTIMUM FOUND


rcpsp/heur_output_or_constraints/Log=2/heurj30.txt
encoding rcpsp/j30.sm/j3019_4.sm nv: 22052 nc: 54960 enctime: 0.44
encoding rcpsp/j30.sm/j3019_4.sm nv: 6216 nc: 14728 enctime: 0.06
c File: j3019_4.smnaiveor2.wcnf
c optimal
c final solution cost: 39
c CPU time: 0.124022
s OPTIMUM FOUND

c File: j3019_4.smor2.wcnf
c optimal
c final solution cost: 39
c CPU time: 0.015492
s OPTIMUM FOUND


rcpsp/heur_output_or_constraints/Log=2/heurj30.txt
encoding rcpsp/j30.sm/j3019_5.sm nv: 23452 nc: 61848 enctime: 0.51
encoding rcpsp/j30.sm/j3019_5.sm nv: 6006 nc: 15000 enctime: 0.06
c File: j3019_5.smnaiveor2.wcnf
c optimal
c final solution cost: 39
c CPU time: 0.142625
s OPTIMUM FOUND

c File: j3019_5.smor2.wcnf
c optimal
c final solution cost: 39
c CPU time: 0.019167
s OPTIMUM FOUND


rcpsp/heur_output_or_constraints/Log=2/heurj30.txt
encoding rcpsp/j30.sm/j3019_6.sm nv: 18495 nc: 45822 enctime: 0.37
encoding rcpsp/j30.sm/j3019_6.sm nv: 5130 nc: 12063 enctime: 0.05
c File: j3019_6.smnaiveor2.wcnf
c optimal
c final solution cost: 37
c CPU time: 0.102478
s OPTIMUM FOUND

c File: j3019_6.smor2.wcnf
c optimal
c final solution cost: 37
c CPU time: 0.012606
s OPTIMUM FOUND


rcpsp/heur_output_or_constraints/Log=2/heurj30.txt
encoding rcpsp/j30.sm/j3019_7.sm nv: 25551 nc: 66050 enctime: 0.54
encoding rcpsp/j30.sm/j3019_7.sm nv: 8721 nc: 21720 enctime: 0.10
c File: j3019_7.smnaiveor2.wcnf
c optimal
c final solution cost: 54
c CPU time: 0.149069
s OPTIMUM FOUND

c File: j3019_7.smor2.wcnf
c optimal
c final solution cost: 54
c CPU time: 0.025084
s OPTIMUM FOUND


rcpsp/heur_output_or_constraints/Log=2/heurj30.txt
encoding rcpsp/j30.sm/j3019_8.sm nv: 28028 nc: 75716 enctime: 0.62
encoding rcpsp/j30.sm/j3019_8.sm nv: 8008 nc: 20596 enctime: 0.09
c File: j3019_8.smnaiveor2.wcnf
c optimal
c final solution cost: 47
c CPU time: 0.172870
s OPTIMUM FOUND

c File: j3019_8.smor2.wcnf
c optimal
c final solution cost: 47
c CPU time: 0.021738
s OPTIMUM FOUND


rcpsp/heur_output_or_constraints/Log=2/heurj30.txt
encoding rcpsp/j30.sm/j3019_9.sm nv: 20925 nc: 54354 enctime: 0.45
encoding rcpsp/j30.sm/j3019_9.sm nv: 6345 nc: 15690 enctime: 0.07
c File: j3019_9.smnaiveor2.wcnf
c optimal
c final solution cost: 38
c CPU time: 0.138894
s OPTIMUM FOUND

c File: j3019_9.smor2.wcnf
c optimal
c final solution cost: 38
c CPU time: 0.020324
s OPTIMUM FOUND


rcpsp/heur_output_or_constraints/Log=2/heurj30.txt
encoding rcpsp/j30.sm/j301_9.sm nv: 22057 nc: 58865 enctime: 0.46
encoding rcpsp/j30.sm/j301_9.sm nv: 5754 nc: 14597 enctime: 0.06
c File: j301_9.smnaiveor2.wcnf
c optimal
c final solution cost: 38
c CPU time: 0.238894
s OPTIMUM FOUND

c File: j301_9.smor2.wcnf
c optimal
c final solution cost: 38
c CPU time: 0.021550
s OPTIMUM FOUND


rcpsp/heur_output_or_constraints/Log=2/heurj30.txt
encoding rcpsp/j30.sm/j3020_10.sm nv: 25254 nc: 59006 enctime: 0.44
encoding rcpsp/j30.sm/j3020_10.sm nv: 6405 nc: 14304 enctime: 0.06
c File: j3020_10.smnaiveor2.wcnf
c optimal
c final solution cost: 34
c CPU time: 0.114081
s OPTIMUM FOUND

c File: j3020_10.smor2.wcnf
c optimal
c final solution cost: 34
c CPU time: 0.012634
s OPTIMUM FOUND


rcpsp/heur_output_or_constraints/Log=2/heurj30.txt
encoding rcpsp/j30.sm/j3020_1.sm nv: 33672 nc: 87205 enctime: 0.69
encoding rcpsp/j30.sm/j3020_1.sm nv: 8464 nc: 20897 enctime: 0.14
c File: j3020_1.smnaiveor2.wcnf
c optimal
c final solution cost: 45
c CPU time: 0.176958
s OPTIMUM FOUND

c File: j3020_1.smor2.wcnf
c optimal
c final solution cost: 45
c CPU time: 0.018565
s OPTIMUM FOUND


rcpsp/heur_output_or_constraints/Log=2/heurj30.txt
encoding rcpsp/j30.sm/j3020_2.sm nv: 23838 nc: 65884 enctime: 0.55
encoding rcpsp/j30.sm/j3020_2.sm nv: 8083 nc: 21494 enctime: 0.10
c File: j3020_2.smnaiveor2.wcnf
c optimal
c final solution cost: 58
c CPU time: 0.151344
s OPTIMUM FOUND

c File: j3020_2.smor2.wcnf
c optimal
c final solution cost: 58
c CPU time: 0.024124
s OPTIMUM FOUND


rcpsp/heur_output_or_constraints/Log=2/heurj30.txt
encoding rcpsp/j30.sm/j3020_3.sm nv: 32398 nc: 86007 enctime: 0.71
encoding rcpsp/j30.sm/j3020_3.sm nv: 6847 nc: 17004 enctime: 0.07
c File: j3020_3.smnaiveor2.wcnf
c optimal
c final solution cost: 39
c CPU time: 0.207180
s OPTIMUM FOUND

c File: j3020_3.smor2.wcnf
c optimal
c final solution cost: 39
c CPU time: 0.017474
s OPTIMUM FOUND


rcpsp/heur_output_or_constraints/Log=2/heurj30.txt
encoding rcpsp/j30.sm/j3020_4.sm nv: 23380 nc: 61366 enctime: 0.52
encoding rcpsp/j30.sm/j3020_4.sm nv: 5460 nc: 13366 enctime: 0.06
c File: j3020_4.smnaiveor2.wcnf
c optimal
c final solution cost: 38
c CPU time: 0.142135
s OPTIMUM FOUND

c File: j3020_4.smor2.wcnf
c optimal
c final solution cost: 38
c CPU time: 0.012568
s OPTIMUM FOUND


rcpsp/heur_output_or_constraints/Log=2/heurj30.txt
encoding rcpsp/j30.sm/j3020_5.sm nv: 20224 nc: 55151 enctime: 0.46
encoding rcpsp/j30.sm/j3020_5.sm nv: 5248 nc: 13499 enctime: 0.06
c File: j3020_5.smnaiveor2.wcnf
c optimal
c final solution cost: 35
c CPU time: 0.132633
s OPTIMUM FOUND

c File: j3020_5.smor2.wcnf
c optimal
c final solution cost: 35
c CPU time: 0.015108
s OPTIMUM FOUND


rcpsp/heur_output_or_constraints/Log=2/heurj30.txt
encoding rcpsp/j30.sm/j3020_6.sm nv: 24047 nc: 65117 enctime: 0.54
encoding rcpsp/j30.sm/j3020_6.sm nv: 6255 nc: 15965 enctime: 0.07
c File: j3020_6.smnaiveor2.wcnf
c optimal
c final solution cost: 41
c CPU time: 0.155261
s OPTIMUM FOUND

c File: j3020_6.smor2.wcnf
c optimal
c final solution cost: 41
c CPU time: 0.016325
s OPTIMUM FOUND


rcpsp/heur_output_or_constraints/Log=2/heurj30.txt
encoding rcpsp/j30.sm/j3020_7.sm nv: 22491 nc: 56152 enctime: 0.46
encoding rcpsp/j30.sm/j3020_7.sm nv: 4998 nc: 11646 enctime: 0.05
c File: j3020_7.smnaiveor2.wcnf
c optimal
c final solution cost: 33
c CPU time: 0.123179
s OPTIMUM FOUND

c File: j3020_7.smor2.wcnf
c optimal
c final solution cost: 33
c CPU time: 0.010886
s OPTIMUM FOUND


rcpsp/heur_output_or_constraints/Log=2/heurj30.txt
encoding rcpsp/j30.sm/j3020_8.sm nv: 22737 nc: 58989 enctime: 0.48
encoding rcpsp/j30.sm/j3020_8.sm nv: 5720 nc: 14007 enctime: 0.06
c File: j3020_8.smnaiveor2.wcnf
c optimal
c final solution cost: 39
c CPU time: 0.130613
s OPTIMUM FOUND

c File: j3020_8.smor2.wcnf
c optimal
c final solution cost: 39
c CPU time: 0.013727
s OPTIMUM FOUND


rcpsp/heur_output_or_constraints/Log=2/heurj30.txt
encoding rcpsp/j30.sm/j3020_9.sm nv: 24964 nc: 61745 enctime: 0.50
encoding rcpsp/j30.sm/j3020_9.sm nv: 6162 nc: 14383 enctime: 0.06
c File: j3020_9.smnaiveor2.wcnf
c optimal
c final solution cost: 38
c CPU time: 0.134574
s OPTIMUM FOUND

c File: j3020_9.smor2.wcnf
c optimal
c final solution cost: 38
c CPU time: 0.012484
s OPTIMUM FOUND


